p cnf 15 90
-9 -3 2 0
-13 -11 -10 0
-9 -2 12 0
-9 4 5 0
-6 4 5 0
-5 9 10 0
-13 -8 1 0
-14 2 9 0
-13 -8 5 0
-5 -2 11 0
9 10 13 0
-9 -9 -1 0
-14 -14 1 0
-11 -11 7 0
-7 9 13 0
6 8 13 0
-14 8 15 0
-6 -4 5 0
-1 8 10 0
6 8 10 0
-10 6 9 0
-9 5 6 0
2 8 15 0
-2 2 5 0
-11 5 13 0
-13 -7 14 0
-10 -2 12 0
-2 4 15 0
-9 10 12 0
-9 -5 6 0
-13 -6 -1 0
-1 -1 3 0
-8 -2 13 0
-11 -4 9 0
-15 -14 -12 0
3 4 14 0
-13 1 5 0
-3 -1 14 0
-8 7 10 0
-7 11 14 0
4 9 13 0
-8 -6 -6 0
-5 6 10 0
-11 -2 6 0
-7 1 15 0
-12 -5 15 0
-15 -12 9 0
-14 12 13 0
-8 2 15 0
-9 5 10 0
-11 4 9 0
-10 3 8 0
-12 5 6 0
-8 -4 12 0
-9 -8 10 0
-9 -7 8 0
-13 -8 14 0
-13 4 8 0
-13 2 12 0
-1 3 14 0
3 7 12 0
-6 6 13 0
-7 -4 3 0
6 9 12 0
-15 -12 -3 0
-10 2 7 0
-8 -8 14 0
-12 2 13 0
-8 -6 9 0
-8 -4 14 0
7 8 11 0
-2 3 7 0
-1 14 15 0
-12 1 7 0
-12 -8 14 0
-13 -12 8 0
-12 -6 8 0
-14 1 9 0
-13 -11 -4 0
1 14 15 0
-12 -1 13 0
-5 6 14 0
-7 -5 -2 0
-2 -1 3 0
-5 -3 14 0
-14 10 13 0
-12 3 14 0
-1 6 12 0
-13 -4 -2 0
-4 8 9 0
